p edge 100 1980
e 1 2
e 1 4
e 1 5
e 1 6
e 1 8
e 1 12
e 1 14
e 1 15
e 1 18
e 1 25
e 1 26
e 1 28
e 1 31
e 1 34
e 1 35
e 1 40
e 1 42
e 1 44
e 1 45
e 1 46
e 1 52
e 1 54
e 1 58
e 1 65
e 1 67
e 1 68
e 1 72
e 1 75
e 1 76
e 1 77
e 1 78
e 1 79
e 1 81
e 1 82
e 1 84
e 1 86
e 1 88
e 1 90
e 1 91
e 1 95
e 1 96
e 1 97
e 1 98
e 2 11
e 2 14
e 2 16
e 2 22
e 2 24
e 2 32
e 2 38
e 2 40
e 2 45
e 2 47
e 2 48
e 2 49
e 2 50
e 2 51
e 2 52
e 2 55
e 2 57
e 2 61
e 2 63
e 2 64
e 2 65
e 2 68
e 2 73
e 2 74
e 2 75
e 2 76
e 2 77
e 2 80
e 2 86
e 2 88
e 2 90
e 2 92
e 2 95
e 2 96
e 2 98
e 2 99
e 2 100
e 3 4
e 3 5
e 3 7
e 3 10
e 3 11
e 3 12
e 3 14
e 3 16
e 3 18
e 3 19
e 3 20
e 3 27
e 3 31
e 3 32
e 3 34
e 3 40
e 3 44
e 3 46
e 3 48
e 3 49
e 3 51
e 3 53
e 3 54
e 3 55
e 3 56
e 3 58
e 3 60
e 3 63
e 3 65
e 3 66
e 3 69
e 3 71
e 3 76
e 3 81
e 3 82
e 3 88
e 3 95
e 3 96
e 3 97
e 3 100
e 4 8
e 4 10
e 4 11
e 4 16
e 4 19
e 4 23
e 4 26
e 4 29
e 4 32
e 4 33
e 4 39
e 4 42
e 4 43
e 4 44
e 4 47
e 4 49
e 4 50
e 4 52
e 4 55
e 4 56
e 4 61
e 4 62
e 4 65
e 4 70
e 4 71
e 4 73
e 4 76
e 4 77
e 4 78
e 4 79
e 4 81
e 4 87
e 4 88
e 4 92
e 4 97
e 5 7
e 5 8
e 5 16
e 5 20
e 5 21
e 5 22
e 5 24
e 5 30
e 5 36
e 5 37
e 5 38
e 5 42
e 5 44
e 5 47
e 5 49
e 5 50
e 5 52
e 5 56
e 5 57
e 5 58
e 5 61
e 5 62
e 5 66
e 5 67
e 5 72
e 5 73
e 5 75
e 5 76
e 5 78
e 5 79
e 5 80
e 5 81
e 5 84
e 5 85
e 5 86
e 5 88
e 5 91
e 5 92
e 5 93
e 5 94
e 5 98
e 6 7
e 6 10
e 6 12
e 6 14
e 6 15
e 6 17
e 6 18
e 6 19
e 6 20
e 6 21
e 6 22
e 6 23
e 6 25
e 6 27
e 6 28
e 6 31
e 6 33
e 6 34
e 6 36
e 6 37
e 6 40
e 6 45
e 6 48
e 6 49
e 6 52
e 6 53
e 6 54
e 6 60
e 6 61
e 6 66
e 6 67
e 6 68
e 6 69
e 6 74
e 6 78
e 6 83
e 6 89
e 6 90
e 6 93
e 6 96
e 6 99
e 6 100
e 7 8
e 7 9
e 7 12
e 7 18
e 7 19
e 7 20
e 7 21
e 7 25
e 7 28
e 7 30
e 7 32
e 7 34
e 7 35
e 7 38
e 7 40
e 7 41
e 7 43
e 7 44
e 7 45
e 7 46
e 7 47
e 7 48
e 7 51
e 7 52
e 7 53
e 7 55
e 7 57
e 7 58
e 7 59
e 7 60
e 7 62
e 7 67
e 7 69
e 7 71
e 7 72
e 7 74
e 7 75
e 7 78
e 7 79
e 7 84
e 7 86
e 7 89
e 7 94
e 7 95
e 7 100
e 8 9
e 8 10
e 8 13
e 8 14
e 8 15
e 8 18
e 8 19
e 8 23
e 8 24
e 8 26
e 8 28
e 8 29
e 8 40
e 8 43
e 8 46
e 8 49
e 8 53
e 8 54
e 8 60
e 8 61
e 8 62
e 8 64
e 8 69
e 8 70
e 8 75
e 8 80
e 8 81
e 8 82
e 8 83
e 8 87
e 8 88
e 8 89
e 8 93
e 9 10
e 9 15
e 9 18
e 9 20
e 9 22
e 9 26
e 9 28
e 9 29
e 9 31
e 9 32
e 9 33
e 9 35
e 9 40
e 9 41
e 9 46
e 9 47
e 9 48
e 9 49
e 9 50
e 9 51
e 9 54
e 9 59
e 9 62
e 9 63
e 9 69
e 9 71
e 9 72
e 9 76
e 9 78
e 9 87
e 9 92
e 9 99
e 10 11
e 10 14
e 10 15
e 10 18
e 10 22
e 10 23
e 10 25
e 10 26
e 10 30
e 10 36
e 10 37
e 10 39
e 10 40
e 10 43
e 10 49
e 10 51
e 10 52
e 10 54
e 10 57
e 10 58
e 10 64
e 10 69
e 10 71
e 10 72
e 10 81
e 10 84
e 10 90
e 10 93
e 10 97
e 11 14
e 11 15
e 11 16
e 11 17
e 11 18
e 11 19
e 11 26
e 11 35
e 11 36
e 11 37
e 11 42
e 11 47
e 11 52
e 11 55
e 11 56
e 11 57
e 11 58
e 11 61
e 11 64
e 11 66
e 11 72
e 11 73
e 11 74
e 11 77
e 11 80
e 11 81
e 11 82
e 11 84
e 11 85
e 11 86
e 11 89
e 11 90
e 11 93
e 12 13
e 12 14
e 12 17
e 12 18
e 12 19
e 12 20
e 12 24
e 12 26
e 12 32
e 12 36
e 12 38
e 12 39
e 12 41
e 12 43
e 12 46
e 12 49
e 12 53
e 12 55
e 12 56
e 12 57
e 12 61
e 12 62
e 12 63
e 12 66
e 12 69
e 12 72
e 12 74
e 12 75
e 12 76
e 12 82
e 12 84
e 12 86
e 12 89
e 12 92
e 12 93
e 12 95
e 13 16
e 13 17
e 13 18
e 13 20
e 13 22
e 13 23
e 13 24
e 13 25
e 13 26
e 13 27
e 13 31
e 13 32
e 13 33
e 13 35
e 13 36
e 13 37
e 13 38
e 13 45
e 13 50
e 13 51
e 13 59
e 13 61
e 13 64
e 13 65
e 13 69
e 13 72
e 13 73
e 13 75
e 13 77
e 13 78
e 13 86
e 13 89
e 13 92
e 13 96
e 13 97
e 13 99
e 13 100
e 14 15
e 14 18
e 14 19
e 14 22
e 14 23
e 14 27
e 14 30
e 14 31
e 14 32
e 14 38
e 14 40
e 14 42
e 14 51
e 14 55
e 14 56
e 14 59
e 14 63
e 14 64
e 14 65
e 14 67
e 14 70
e 14 73
e 14 74
e 14 75
e 14 76
e 14 81
e 14 82
e 14 85
e 14 86
e 14 97
e 14 99
e 14 100
e 15 18
e 15 19
e 15 22
e 15 23
e 15 30
e 15 33
e 15 35
e 15 36
e 15 40
e 15 42
e 15 43
e 15 44
e 15 45
e 15 46
e 15 49
e 15 51
e 15 53
e 15 58
e 15 65
e 15 66
e 15 69
e 15 70
e 15 75
e 15 77
e 15 81
e 15 84
e 15 85
e 15 90
e 15 93
e 15 95
e 15 96
e 15 99
e 16 18
e 16 19
e 16 20
e 16 21
e 16 24
e 16 25
e 16 32
e 16 35
e 16 37
e 16 38
e 16 39
e 16 40
e 16 43
e 16 44
e 16 46
e 16 48
e 16 52
e 16 56
e 16 57
e 16 58
e 16 61
e 16 63
e 16 65
e 16 68
e 16 71
e 16 74
e 16 75
e 16 76
e 16 77
e 16 80
e 16 81
e 16 82
e 16 86
e 16 89
e 16 92
e 16 98
e 16 99
e 17 27
e 17 29
e 17 32
e 17 33
e 17 34
e 17 35
e 17 39
e 17 40
e 17 42
e 17 43
e 17 45
e 17 47
e 17 48
e 17 54
e 17 57
e 17 58
e 17 64
e 17 75
e 17 78
e 17 80
e 17 82
e 17 84
e 17 85
e 17 88
e 17 90
e 17 91
e 17 99
e 18 25
e 18 29
e 18 38
e 18 41
e 18 44
e 18 46
e 18 53
e 18 57
e 18 59
e 18 60
e 18 61
e 18 63
e 18 64
e 18 68
e 18 70
e 18 71
e 18 72
e 18 73
e 18 80
e 18 84
e 18 90
e 18 91
e 18 93
e 18 94
e 18 96
e 18 97
e 19 22
e 19 27
e 19 29
e 19 30
e 19 31
e 19 32
e 19 38
e 19 39
e 19 40
e 19 43
e 19 44
e 19 49
e 19 50
e 19 51
e 19 52
e 19 54
e 19 55
e 19 57
e 19 61
e 19 63
e 19 64
e 19 66
e 19 67
e 19 68
e 19 76
e 19 78
e 19 80
e 19 85
e 19 86
e 19 93
e 20 21
e 20 23
e 20 24
e 20 26
e 20 27
e 20 31
e 20 32
e 20 33
e 20 39
e 20 40
e 20 41
e 20 42
e 20 45
e 20 46
e 20 47
e 20 53
e 20 57
e 20 60
e 20 61
e 20 66
e 20 67
e 20 68
e 20 69
e 20 72
e 20 74
e 20 75
e 20 77
e 20 78
e 20 80
e 20 89
e 20 92
e 20 95
e 20 96
e 20 97
e 20 98
e 20 99
e 20 100
e 21 22
e 21 23
e 21 26
e 21 28
e 21 33
e 21 35
e 21 40
e 21 41
e 21 42
e 21 43
e 21 44
e 21 45
e 21 46
e 21 47
e 21 49
e 21 51
e 21 58
e 21 60
e 21 62
e 21 64
e 21 67
e 21 71
e 21 76
e 21 78
e 21 79
e 21 81
e 21 88
e 21 92
e 21 93
e 21 94
e 22 23
e 22 27
e 22 29
e 22 31
e 22 34
e 22 39
e 22 40
e 22 44
e 22 46
e 22 49
e 22 53
e 22 55
e 22 58
e 22 60
e 22 64
e 22 68
e 22 73
e 22 74
e 22 75
e 22 76
e 22 77
e 22 79
e 22 81
e 22 82
e 22 83
e 22 86
e 22 95
e 22 97
e 22 99
e 22 100
e 23 24
e 23 26
e 23 32
e 23 35
e 23 36
e 23 37
e 23 43
e 23 46
e 23 47
e 23 48
e 23 50
e 23 51
e 23 57
e 23 63
e 23 66
e 23 67
e 23 68
e 23 69
e 23 71
e 23 73
e 23 76
e 23 80
e 23 82
e 23 85
e 23 86
e 23 87
e 23 90
e 23 92
e 23 96
e 23 98
e 23 99
e 23 100
e 24 28
e 24 33
e 24 34
e 24 37
e 24 38
e 24 39
e 24 41
e 24 42
e 24 48
e 24 51
e 24 55
e 24 56
e 24 57
e 24 60
e 24 63
e 24 67
e 24 69
e 24 72
e 24 74
e 24 75
e 24 76
e 24 80
e 24 82
e 24 83
e 24 88
e 24 90
e 24 91
e 24 96
e 24 100
e 25 28
e 25 29
e 25 31
e 25 35
e 25 39
e 25 40
e 25 41
e 25 42
e 25 48
e 25 49
e 25 53
e 25 54
e 25 56
e 25 57
e 25 59
e 25 63
e 25 64
e 25 71
e 25 73
e 25 79
e 25 86
e 25 87
e 25 89
e 25 90
e 25 91
e 25 92
e 25 94
e 25 95
e 25 96
e 25 98
e 25 99
e 26 28
e 26 31
e 26 32
e 26 35
e 26 36
e 26 37
e 26 38
e 26 43
e 26 48
e 26 50
e 26 53
e 26 54
e 26 55
e 26 60
e 26 66
e 26 67
e 26 68
e 26 71
e 26 75
e 26 77
e 26 83
e 26 85
e 26 91
e 26 92
e 26 93
e 27 28
e 27 29
e 27 33
e 27 36
e 27 38
e 27 39
e 27 40
e 27 44
e 27 46
e 27 47
e 27 48
e 27 51
e 27 53
e 27 54
e 27 58
e 27 60
e 27 61
e 27 63
e 27 70
e 27 74
e 27 75
e 27 77
e 27 78
e 27 80
e 27 81
e 27 83
e 27 84
e 27 85
e 27 97
e 27 98
e 27 99
e 28 29
e 28 30
e 28 32
e 28 36
e 28 38
e 28 39
e 28 43
e 28 44
e 28 46
e 28 48
e 28 51
e 28 52
e 28 53
e 28 54
e 28 55
e 28 57
e 28 59
e 28 66
e 28 67
e 28 68
e 28 71
e 28 73
e 28 75
e 28 78
e 28 80
e 28 82
e 28 84
e 28 86
e 28 87
e 28 92
e 28 94
e 28 97
e 28 98
e 29 31
e 29 32
e 29 35
e 29 37
e 29 39
e 29 40
e 29 42
e 29 51
e 29 53
e 29 54
e 29 59
e 29 60
e 29 63
e 29 64
e 29 66
e 29 71
e 29 72
e 29 74
e 29 78
e 29 79
e 29 80
e 29 81
e 29 82
e 29 88
e 29 89
e 29 90
e 29 93
e 29 96
e 29 97
e 29 98
e 29 99
e 29 100
e 30 31
e 30 33
e 30 35
e 30 36
e 30 38
e 30 40
e 30 41
e 30 42
e 30 46
e 30 48
e 30 49
e 30 52
e 30 53
e 30 58
e 30 60
e 30 63
e 30 64
e 30 65
e 30 66
e 30 68
e 30 69
e 30 70
e 30 71
e 30 74
e 30 79
e 30 85
e 30 86
e 30 87
e 30 89
e 30 90
e 30 92
e 30 93
e 30 99
e 31 33
e 31 36
e 31 38
e 31 40
e 31 41
e 31 45
e 31 46
e 31 47
e 31 50
e 31 51
e 31 59
e 31 60
e 31 66
e 31 68
e 31 71
e 31 72
e 31 73
e 31 76
e 31 79
e 31 81
e 31 82
e 31 84
e 31 89
e 31 93
e 31 94
e 31 96
e 31 97
e 31 100
e 32 33
e 32 37
e 32 38
e 32 42
e 32 52
e 32 53
e 32 55
e 32 56
e 32 64
e 32 69
e 32 70
e 32 72
e 32 75
e 32 78
e 32 80
e 32 83
e 32 87
e 32 89
e 32 90
e 32 92
e 32 93
e 32 96
e 32 97
e 32 100
e 33 34
e 33 35
e 33 37
e 33 44
e 33 46
e 33 47
e 33 48
e 33 51
e 33 64
e 33 66
e 33 68
e 33 71
e 33 75
e 33 82
e 33 85
e 33 86
e 33 91
e 33 92
e 33 93
e 33 94
e 34 35
e 34 38
e 34 42
e 34 46
e 34 52
e 34 55
e 34 58
e 34 59
e 34 64
e 34 65
e 34 67
e 34 72
e 34 74
e 34 75
e 34 79
e 34 85
e 34 86
e 34 87
e 34 88
e 34 89
e 34 93
e 34 94
e 34 97
e 35 36
e 35 37
e 35 38
e 35 40
e 35 42
e 35 43
e 35 45
e 35 46
e 35 48
e 35 50
e 35 52
e 35 57
e 35 60
e 35 61
e 35 64
e 35 65
e 35 66
e 35 68
e 35 71
e 35 76
e 35 78
e 35 85
e 35 87
e 35 91
e 35 93
e 35 95
e 36 42
e 36 43
e 36 44
e 36 45
e 36 46
e 36 50
e 36 51
e 36 52
e 36 53
e 36 54
e 36 56
e 36 62
e 36 63
e 36 64
e 36 65
e 36 66
e 36 67
e 36 76
e 36 77
e 36 78
e 36 81
e 36 82
e 36 86
e 36 88
e 36 90
e 36 91
e 36 92
e 36 94
e 36 95
e 36 96
e 36 98
e 36 100
e 37 40
e 37 46
e 37 47
e 37 54
e 37 55
e 37 56
e 37 57
e 37 59
e 37 60
e 37 62
e 37 63
e 37 64
e 37 65
e 37 66
e 37 72
e 37 73
e 37 76
e 37 82
e 37 84
e 37 87
e 37 93
e 37 94
e 37 97
e 37 98
e 38 40
e 38 41
e 38 42
e 38 43
e 38 44
e 38 48
e 38 49
e 38 50
e 38 52
e 38 54
e 38 57
e 38 63
e 38 64
e 38 69
e 38 70
e 38 72
e 38 73
e 38 74
e 38 76
e 38 78
e 38 79
e 38 80
e 38 82
e 38 84
e 38 85
e 38 86
e 38 87
e 38 90
e 39 40
e 39 42
e 39 45
e 39 46
e 39 47
e 39 48
e 39 51
e 39 52
e 39 55
e 39 59
e 39 60
e 39 61
e 39 62
e 39 68
e 39 75
e 39 80
e 39 83
e 39 84
e 39 86
e 39 87
e 39 92
e 39 96
e 39 98
e 39 99
e 39 100
e 40 43
e 40 44
e 40 53
e 40 55
e 40 60
e 40 62
e 40 67
e 40 68
e 40 69
e 40 74
e 40 77
e 40 78
e 40 79
e 40 80
e 40 81
e 40 82
e 40 88
e 40 89
e 40 90
e 40 92
e 40 94
e 40 95
e 40 98
e 40 99
e 40 100
e 41 44
e 41 47
e 41 49
e 41 51
e 41 53
e 41 54
e 41 55
e 41 62
e 41 67
e 41 70
e 41 75
e 41 82
e 41 83
e 41 85
e 41 88
e 41 90
e 41 92
e 41 93
e 41 94
e 41 100
e 42 43
e 42 44
e 42 48
e 42 49
e 42 50
e 42 51
e 42 58
e 42 59
e 42 63
e 42 68
e 42 70
e 42 72
e 42 74
e 42 75
e 42 76
e 42 77
e 42 78
e 42 79
e 42 84
e 42 86
e 42 88
e 42 90
e 42 91
e 42 92
e 42 93
e 42 96
e 42 97
e 43 46
e 43 49
e 43 52
e 43 53
e 43 54
e 43 58
e 43 63
e 43 67
e 43 70
e 43 71
e 43 73
e 43 81
e 43 82
e 43 84
e 43 93
e 43 94
e 43 96
e 43 99
e 43 100
e 44 46
e 44 47
e 44 48
e 44 52
e 44 53
e 44 56
e 44 58
e 44 59
e 44 60
e 44 61
e 44 62
e 44 64
e 44 69
e 44 71
e 44 74
e 44 75
e 44 79
e 44 82
e 44 85
e 44 86
e 44 87
e 44 100
e 45 46
e 45 49
e 45 53
e 45 55
e 45 60
e 45 61
e 45 69
e 45 70
e 45 72
e 45 73
e 45 74
e 45 77
e 45 78
e 45 80
e 45 81
e 45 83
e 45 86
e 45 87
e 45 88
e 45 89
e 45 91
e 45 93
e 45 94
e 45 97
e 45 98
e 45 99
e 46 48
e 46 54
e 46 56
e 46 58
e 46 59
e 46 63
e 46 65
e 46 70
e 46 71
e 46 72
e 46 73
e 46 75
e 46 76
e 46 77
e 46 80
e 46 82
e 46 87
e 46 91
e 46 94
e 46 95
e 46 96
e 46 97
e 46 98
e 46 99
e 47 48
e 47 50
e 47 52
e 47 59
e 47 62
e 47 65
e 47 66
e 47 70
e 47 71
e 47 75
e 47 77
e 47 78
e 47 79
e 47 84
e 47 86
e 47 88
e 47 91
e 47 92
e 47 93
e 47 94
e 47 95
e 48 49
e 48 52
e 48 61
e 48 63
e 48 64
e 48 66
e 48 67
e 48 68
e 48 72
e 48 78
e 48 81
e 48 85
e 48 86
e 48 88
e 48 90
e 48 93
e 48 96
e 48 97
e 48 100
e 49 51
e 49 56
e 49 57
e 49 59
e 49 60
e 49 62
e 49 64
e 49 68
e 49 69
e 49 71
e 49 73
e 49 74
e 49 77
e 49 81
e 49 83
e 49 85
e 49 88
e 49 90
e 49 93
e 49 94
e 49 95
e 49 96
e 49 98
e 50 53
e 50 54
e 50 55
e 50 58
e 50 59
e 50 61
e 50 65
e 50 66
e 50 67
e 50 69
e 50 74
e 50 75
e 50 77
e 50 78
e 50 81
e 50 84
e 50 87
e 50 88
e 50 89
e 50 90
e 50 94
e 50 98
e 51 52
e 51 53
e 51 55
e 51 56
e 51 57
e 51 58
e 51 60
e 51 65
e 51 70
e 51 72
e 51 74
e 51 75
e 51 80
e 51 81
e 51 83
e 51 85
e 51 86
e 51 89
e 51 92
e 51 97
e 51 99
e 51 100
e 52 54
e 52 61
e 52 62
e 52 66
e 52 72
e 52 76
e 52 83
e 52 87
e 52 89
e 52 91
e 52 92
e 52 94
e 52 95
e 52 99
e 53 55
e 53 62
e 53 65
e 53 66
e 53 69
e 53 71
e 53 74
e 53 80
e 53 88
e 53 92
e 53 94
e 53 99
e 54 55
e 54 57
e 54 61
e 54 67
e 54 68
e 54 71
e 54 77
e 54 78
e 54 81
e 54 85
e 54 87
e 54 88
e 54 89
e 54 92
e 54 93
e 54 94
e 54 96
e 54 99
e 54 100
e 55 57
e 55 58
e 55 63
e 55 64
e 55 65
e 55 69
e 55 70
e 55 71
e 55 72
e 55 76
e 55 81
e 55 82
e 55 83
e 55 84
e 55 85
e 55 86
e 55 92
e 55 93
e 56 58
e 56 60
e 56 62
e 56 63
e 56 66
e 56 67
e 56 68
e 56 69
e 56 70
e 56 72
e 56 73
e 56 76
e 56 82
e 56 83
e 56 87
e 56 88
e 56 91
e 56 93
e 56 96
e 56 99
e 57 65
e 57 67
e 57 69
e 57 74
e 57 79
e 57 83
e 57 85
e 57 87
e 57 89
e 57 91
e 57 92
e 57 93
e 57 94
e 57 96
e 57 99
e 57 100
e 58 59
e 58 60
e 58 62
e 58 65
e 58 66
e 58 67
e 58 70
e 58 74
e 58 75
e 58 78
e 58 79
e 58 80
e 58 84
e 58 91
e 58 92
e 58 95
e 58 99
e 59 62
e 59 63
e 59 64
e 59 65
e 59 66
e 59 68
e 59 69
e 59 71
e 59 72
e 59 76
e 59 77
e 59 78
e 59 79
e 59 81
e 59 82
e 59 84
e 59 86
e 59 87
e 59 88
e 59 93
e 60 61
e 60 63
e 60 64
e 60 65
e 60 68
e 60 70
e 60 72
e 60 73
e 60 74
e 60 75
e 60 77
e 60 83
e 60 87
e 60 93
e 60 94
e 60 96
e 60 97
e 60 98
e 60 100
e 61 65
e 61 66
e 61 69
e 61 70
e 61 71
e 61 76
e 61 80
e 61 81
e 61 82
e 61 87
e 61 88
e 61 91
e 61 97
e 61 100
e 62 65
e 62 66
e 62 68
e 62 70
e 62 73
e 62 76
e 62 77
e 62 78
e 62 80
e 62 81
e 62 83
e 62 85
e 62 92
e 62 93
e 62 96
e 62 97
e 63 65
e 63 68
e 63 70
e 63 75
e 63 78
e 63 79
e 63 87
e 63 93
e 63 94
e 63 98
e 63 100
e 64 65
e 64 66
e 64 67
e 64 68
e 64 75
e 64 76
e 64 77
e 64 78
e 64 79
e 64 80
e 64 82
e 64 84
e 64 86
e 64 91
e 64 93
e 64 95
e 64 96
e 64 97
e 65 68
e 65 69
e 65 71
e 65 74
e 65 79
e 65 85
e 65 90
e 65 91
e 65 93
e 65 94
e 65 95
e 65 96
e 65 97
e 65 99
e 66 68
e 66 73
e 66 75
e 66 81
e 66 82
e 66 84
e 66 86
e 66 87
e 66 88
e 66 97
e 66 98
e 67 68
e 67 69
e 67 76
e 67 77
e 67 81
e 67 87
e 67 91
e 67 93
e 67 95
e 67 96
e 67 97
e 68 69
e 68 73
e 68 80
e 68 82
e 68 84
e 68 86
e 68 88
e 68 95
e 68 97
e 68 98
e 68 99
e 68 100
e 69 70
e 69 76
e 69 78
e 69 79
e 69 80
e 69 82
e 69 84
e 69 87
e 69 89
e 69 90
e 69 91
e 69 93
e 69 95
e 69 98
e 69 100
e 70 71
e 70 75
e 70 76
e 70 78
e 70 79
e 70 82
e 70 83
e 70 84
e 70 85
e 70 89
e 70 91
e 70 92
e 70 93
e 70 95
e 70 97
e 71 72
e 71 73
e 71 77
e 71 79
e 71 82
e 71 84
e 71 86
e 71 88
e 71 90
e 71 92
e 71 96
e 71 98
e 71 99
e 71 100
e 72 73
e 72 76
e 72 77
e 72 83
e 72 84
e 72 85
e 72 86
e 72 87
e 72 88
e 73 75
e 73 76
e 73 77
e 73 78
e 73 81
e 73 83
e 73 84
e 73 87
e 73 89
e 73 94
e 73 98
e 73 99
e 73 100
e 74 78
e 74 81
e 74 82
e 74 83
e 74 86
e 74 88
e 74 90
e 74 94
e 74 96
e 74 99
e 74 100
e 75 76
e 75 87
e 75 88
e 75 90
e 75 93
e 75 94
e 75 96
e 75 99
e 76 78
e 76 79
e 76 83
e 76 87
e 76 89
e 76 94
e 76 95
e 76 97
e 76 98
e 76 99
e 76 100
e 77 78
e 77 84
e 77 88
e 77 89
e 77 94
e 77 96
e 77 97
e 77 98
e 77 99
e 78 79
e 78 82
e 78 87
e 78 88
e 78 90
e 78 91
e 78 92
e 78 93
e 78 99
e 79 85
e 79 87
e 79 88
e 79 91
e 79 95
e 79 96
e 79 97
e 80 81
e 80 82
e 80 84
e 80 86
e 80 87
e 80 92
e 80 94
e 80 96
e 80 97
e 81 82
e 81 86
e 81 91
e 81 100
e 82 90
e 82 91
e 82 93
e 82 94
e 82 95
e 82 97
e 82 99
e 83 89
e 83 92
e 83 93
e 83 94
e 83 97
e 83 98
e 84 88
e 84 89
e 84 90
e 84 91
e 84 92
e 84 94
e 84 95
e 84 96
e 84 97
e 84 99
e 85 86
e 85 91
e 85 92
e 85 93
e 85 96
e 85 97
e 85 98
e 85 99
e 85 100
e 86 88
e 86 89
e 86 90
e 86 91
e 86 94
e 86 95
e 86 99
e 86 100
e 87 88
e 87 90
e 87 91
e 87 92
e 87 100
e 88 91
e 88 99
e 89 93
e 89 94
e 89 95
e 89 98
e 89 99
e 90 92
e 90 93
e 90 94
e 90 97
e 90 99
e 90 100
e 91 92
e 91 93
e 91 94
e 91 97
e 91 98
e 92 93
e 92 98
e 92 99
e 92 100
e 93 94
e 93 96
e 93 100
e 95 98
e 95 100
e 97 100
e 99 100
